100
30
31
29
5
31
32
2
28
3
21
31
12
25
3
20
8
16
31
20
24
15
23
10
3
28
14
6
14
32
3
26
19
7
15
31
32
32
31
3
29
3
19
26
8
13
22
3
20
16
10
16
20
4
17
3
2
13
7
2
6
4
1
32
13
31
18
7
18
22
13
31
30
7
11
4
4
18
13
9
2
6
11
6
18
32
32
6
9
30
17
12
14
6
31
11
4
15
4
32
11
17